22	0

0	2	3	2
4	2	4	6
5	2	4	6
3	4	5	7	8	9
9	1	10
6	2	7	11
7	1	10
4	2	10	11
6	2	10	11
2	2	12	13
7	2	12	13
3	2	14	15
7	3	16	17	18
4	3	16	17	18
2	3	16	17	18
10	2	19	21
7	2	19	21
10	2	19	21
2	1	20
6	1	22
8	1	22
0	0
